(set-logic QF_S)
(declare-fun var0 () String)
(assert (str.in.re var0 (re.++ (re.* (re.+ (re.* (re.* (re.union (re.* (re.union (re.* (re.* (str.to.re "000"))) (re.* (re.+ (str.to.re "11"))))) (re.* (re.+ (re.* (re.union (str.to.re "222") (str.to.re "333")))))))))) (re.union (re.+ (re.+ (re.* (re.* (re.+ (re.union (re.+ (re.union (str.to.re "44") (str.to.re "555"))) (re.+ (re.union (str.to.re "66") (str.to.re "77"))))))))) (re.+ (re.union (re.union (re.+ (re.* (re.union (re.+ (re.+ (str.to.re "88"))) (re.+ (re.* (str.to.re "9")))))) (re.+ (re.* (re.+ (re.* (re.+ (str.to.re "a"))))))) (re.union (re.* (re.+ (re.union (re.union (re.+ (str.to.re "b")) (re.+ (str.to.re "cc"))) (re.union (re.+ (str.to.re "ddd")) (re.+ (str.to.re "e")))))) (re.* (re.* (re.+ (re.* (re.+ (str.to.re "ff")))))))))))))
(assert (<= 15 (str.len var0)))
(check-sat)